data;


param FN:= 2;
param D:= 100;
param U_Original:=
         1         1       -1.287404e+00
         2         1        1.740772e+00
         3         1       -2.234558e-01
         4         1        3.826615e-01
         5         1       -1.110211e+00
         6         1        7.669932e-01
         7         1        2.444425e+00
         8         1        6.414311e-01
         9         1        9.781503e-01
        10         1        1.209102e+00
        11         1       -1.828954e+00
        12         1       -4.740218e-01
        13         1       -4.310651e-01
        14         1       -2.728754e+00
        15         1       -5.954402e-01
        16         1        2.560135e+00
        17         1       -9.078426e-01
        18         1        5.345051e-01
        19         1        9.556233e-01
        20         1        4.650904e-01
        21         1        2.140887e-02
        22         1       -5.738530e-01
        23         1        1.971989e+00
        24         1       -1.774796e+00
        25         1        6.377687e-01
        26         1        1.060887e+00
        27         1        5.621112e-01
        28         1       -4.272827e-01
        29         1        7.208073e-01
        30         1        2.573184e-01
        31         1       -8.606457e-01
        32         1       -6.949265e-01
        33         1        5.241360e-03
        34         1        4.874983e-01
        35         1        1.060890e+00
        36         1       -2.011209e+00
        37         1       -1.088020e-01
        38         1       -1.428444e+00
        39         1        1.611310e+00
        40         1       -4.554217e-01
        41         1        1.145064e+00
        42         1       -1.237901e+00
        43         1        1.956870e-01
        44         1        5.497270e-01
        45         1       -6.473012e-01
        46         1       -1.013481e+00
        47         1        3.885275e-01
        48         1        6.545435e-01
        49         1        1.091142e+00
        50         1       -1.314309e-02
        51         1        9.634512e-01
        52         1        2.359572e+00
        53         1        6.071229e-01
        54         1        4.368970e-01
        55         1       -7.357678e-01
        56         1       -1.062744e+00
        57         1       -1.556231e+00
        58         1        1.526137e+00
        59         1        1.109814e-01
        60         1       -1.142622e+00
        61         1        4.683657e-01
        62         1        1.431272e+00
        63         1       -2.152792e-01
        64         1       -4.167750e-01
        65         1        8.077471e-01
        66         1       -1.057616e-01
        67         1        3.337030e-01
        68         1       -8.072826e-01
        69         1        2.108799e+00
        70         1       -3.470951e-01
        71         1        7.106416e-01
        72         1       -2.081712e-03
        73         1       -3.787364e-01
        74         1        6.485021e-01
        75         1       -1.623241e-01
        76         1        9.314590e-02
        77         1       -7.952098e-02
        78         1       -6.434992e-01
        79         1       -1.274661e+00
        80         1       -4.446028e-01
        81         1        6.628058e-01
        82         1        1.034437e+00
        83         1       -7.485347e-01
        84         1       -1.032475e-01
        85         1        2.234411e+00
        86         1        1.085615e+00
        87         1       -9.465448e-02
        88         1       -2.432915e-01
        89         1        4.572675e-01
        90         1       -2.455163e+00
        91         1        3.206066e-01
        92         1        8.232958e-01
        93         1       -1.540905e-01
        94         1        5.840671e-01
        95         1        1.202224e+00
        96         1        1.063072e+00
        97         1        1.232634e-01
        98         1        5.039480e-01
        99         1       -1.262220e+00
       100         1        1.633727e+00
         1         2        3.029154e-01
         2         2        8.221527e-01
         3         2        1.218175e+00
         4         2       -2.284084e-01
         5         2        1.960807e-02
         6         2       -1.512244e+00
         7         2       -2.299055e+00
         8         2       -2.203179e-01
         9         2        1.604603e+00
        10         2       -3.060873e-03
        11         2        5.452291e-01
        12         2        1.160999e+00
        13         2        8.147597e-01
        14         2       -1.541919e+00
        15         2        8.560882e-01
        16         2        2.768442e-02
        17         2       -5.097560e-01
        18         2        1.902011e+00
        19         2        1.390112e+00
        20         2        1.324306e+00
        21         2       -3.924573e-01
        22         2        8.769636e-01
        23         2        1.248153e+00
        24         2        2.746197e-01
        25         2       -1.892613e+00
        26         2        7.861360e-01
        27         2       -5.647627e-01
        28         2        5.520519e-01
        29         2       -1.048289e-01
        30         2       -9.380967e-01
        31         2       -2.253637e-02
        32         2       -1.007318e+00
        33         2       -2.006197e+00
        34         2       -4.952897e-01
        35         2       -1.294279e+00
        36         2       -2.351344e+00
        37         2        1.314999e+00
        38         2        4.719950e-02
        39         2        1.503777e-01
        40         2        1.238316e+00
        41         2        6.860804e-01
        42         2        7.507835e-01
        43         2       -7.420792e-01
        44         2       -1.253265e-01
        45         2        2.377485e-01
        46         2       -8.486857e-01
        47         2       -2.713148e-01
        48         2       -1.336513e+00
        49         2        8.184914e-01
        50         2        3.558070e-01
        51         2       -1.340404e+00
        52         2       -9.832085e-01
        53         2        4.234154e-01
        54         2        2.338475e+00
        55         2        1.630556e+00
        56         2       -2.252395e+00
        57         2        5.924731e-01
        58         2        4.624552e-02
        59         2       -1.667203e-01
        60         2        8.303884e-01
        61         2       -1.774616e-01
        62         2       -1.449727e-01
        63         2       -3.460178e-01
        64         2       -1.428158e+00
        65         2        9.635455e-01
        66         2       -5.746609e-01
        67         2        2.136983e+00
        68         2       -6.578478e-01
        69         2       -4.107053e-01
        70         2       -1.200095e+00
        71         2       -1.464681e+00
        72         2        1.055622e+00
        73         2        7.056689e-01
        74         2       -1.065552e+00
        75         2       -2.066540e+00
        76         2       -3.678269e-01
        77         2       -8.165604e-01
        78         2       -4.124846e-01
        79         2       -2.577666e-01
        80         2        1.050610e-01
        81         2       -2.164422e+00
        82         2       -4.029554e-01
        83         2        6.089479e-01
        84         2        1.287236e+00
        85         2       -4.355280e-01
        86         2       -2.349314e-01
        87         2        4.044977e-01
        88         2       -1.582069e-02
        89         2       -5.190357e-01
        90         2       -7.219378e-01
        91         2       -1.781040e-01
        92         2        7.673983e-02
        93         2        1.344435e+00
        94         2       -1.067110e-01
        95         2        4.867615e-01
        96         2        8.535774e-01
        97         2        1.107366e+00
        98         2        5.400331e-01
        99         2        8.102332e-01
       100         2       -4.683572e-01
         1         3       -2.023285e+00
         2         3       -1.370617e+00
         3         3        1.176385e+00
         4         3        8.473457e-01
         5         3        1.062240e+00
         6         3       -7.990990e-01
         7         3       -2.095877e+00
         8         3        4.046990e-01
         9         3        3.548389e-01
        10         3        1.298543e+00
        11         3        9.462571e-01
        12         3       -1.936540e-01
        13         3        1.889728e-01
        14         3       -1.735810e+00
        15         3        9.030400e-01
        16         3       -7.098223e-01
        17         3        3.677685e-01
        18         3        5.179540e-01
        19         3        1.068886e+00
        20         3        1.811090e+00
        21         3        1.444461e+00
        22         3       -3.223686e-01
        23         3       -1.653403e+00
        24         3       -1.762565e+00
        25         3        1.884491e+00
        26         3        2.299664e+00
        27         3        1.672178e+00
        28         3       -6.519315e-01
        29         3       -9.630622e-01
        30         3       -2.612522e-01
        31         3        1.315976e-01
        32         3        2.630146e-01
        33         3       -1.456223e+00
        34         3       -2.856062e-01
        35         3        1.621289e+00
        36         3        2.413087e-01
        37         3       -1.634299e+00
        38         3       -5.849442e-01
        39         3       -1.222351e-01
        40         3       -9.540789e-01
        41         3        9.376219e-03
        42         3       -7.483781e-02
        43         3       -1.465661e+00
        44         3       -1.550612e-01
        45         3       -6.447356e-02
        46         3       -7.468385e-01
        47         3       -1.513150e+00
        48         3        9.251330e-01
        49         3       -5.621695e-01
        50         3       -7.576651e-01
        51         3        1.309205e+00
        52         3       -1.183246e+00
        53         3        9.980017e-01
        54         3        5.743606e-01
        55         3       -1.074256e+00
        56         3       -8.449538e-01
        57         3       -6.258297e-01
        58         3       -1.596190e+00
        59         3       -1.916431e-01
        60         3       -2.493600e-01
        61         3        3.022314e-01
        62         3       -2.275852e-01
        63         3       -1.584483e-01
        64         3        8.984250e-01
        65         3       -9.691382e-01
        66         3        1.002603e+00
        67         3        7.309937e-01
        68         3        5.469433e-01
        69         3        1.078913e-01
        70         3        2.178236e+00
        71         3        9.247145e-01
        72         3       -8.230123e-01
        73         3       -5.369481e-01
        74         3        9.248432e-01
        75         3       -4.803357e-01
        76         3        1.517272e+00
        77         3        2.980257e-01
        78         3       -7.644866e-01
        79         3       -1.013467e+00
        80         3       -5.678973e-01
        81         3       -4.708918e-01
        82         3        3.683508e-01
        83         3        6.906435e-01
        84         3        4.307541e-01
        85         3       -9.485146e-01
        86         3        1.252729e+00
        87         3       -3.883070e-01
        88         3       -2.897573e-02
        89         3       -2.898239e-01
        90         3        2.445411e-01
        91         3       -2.602529e-01
        92         3        1.175620e+00
        93         3        9.671812e-01
        94         3       -6.876991e-01
        95         3       -7.001510e-01
        96         3       -1.697993e+00
        97         3        1.020533e+00
        98         3       -6.738249e-01
        99         3        4.271113e-01
       100         3       -6.110669e-02
         1         4       -1.790373e+00
         2         4        1.203620e-01
         3         4       -1.862263e+00
         4         4       -4.880955e-01
         5         4       -5.599024e-02
         6         4        8.872633e-01
         7         4       -3.523449e-01
         8         4       -9.523123e-01
         9         4        9.694675e-02
        10         4        5.570604e-01
        11         4        1.296372e+00
        12         4        1.618538e+00
        13         4       -1.137098e-01
        14         4        1.338667e-01
        15         4       -1.378394e+00
        16         4       -8.008621e-01
        17         4        1.064214e+00
        18         4       -9.126171e-01
        19         4       -1.762281e+00
        20         4        2.639334e+00
        21         4       -1.213010e+00
        22         4        1.293940e+00
        23         4       -1.345132e+00
        24         4        6.617979e-01
        25         4        2.158047e+00
        26         4       -9.667957e-01
        27         4        1.988402e-01
        28         4       -1.781202e+00
        29         4       -6.353306e-01
        30         4       -2.896863e-01
        31         4        4.162006e-01
        32         4       -7.990461e-01
        33         4       -1.817386e-01
        34         4        6.095798e-01
        35         4       -1.300121e+00
        36         4        3.806163e-01
        37         4        3.291174e-01
        38         4        8.207724e-01
        39         4       -6.454746e-01
        40         4       -6.290907e-01
        41         4        2.976353e+00
        42         4        1.844235e+00
        43         4       -2.415919e-01
        44         4        8.039185e-01
        45         4       -8.974228e-01
        46         4       -1.017254e-01
        47         4       -1.709985e-01
        48         4        2.234240e-03
        49         4       -7.274134e-01
        50         4       -1.956021e+00
        51         4        1.197831e+00
        52         4        3.999654e-01
        53         4        1.067374e+00
        54         4        8.976550e-01
        55         4       -2.761366e+00
        56         4       -6.185895e-01
        57         4        1.298082e-01
        58         4       -2.488121e-01
        59         4        1.190240e-01
        60         4       -9.948801e-01
        61         4        2.689965e-01
        62         4        1.040273e-01
        63         4        1.393744e-01
        64         4        6.269847e-01
        65         4       -5.003642e-02
        66         4       -3.782648e-01
        67         4        1.134998e+00
        68         4        4.891919e-01
        69         4        8.818521e-01
        70         4       -7.304696e-01
        71         4        6.937086e-02
        72         4        8.983000e-01
        73         4       -1.465836e+00
        74         4        5.074170e-01
        75         4       -1.778769e+00
        76         4        7.570321e-02
        77         4        1.425360e+00
        78         4       -7.810593e-01
        79         4        3.629694e-01
        80         4        4.706898e-01
        81         4       -9.529056e-01
        82         4       -1.546482e+00
        83         4       -7.505051e-01
        84         4        2.806173e-01
        85         4        5.405697e-01
        86         4       -1.248614e-01
        87         4        3.389457e-02
        88         4       -2.711676e+00
        89         4        9.611571e-01
        90         4       -9.780193e-03
        91         4       -3.874160e-01
        92         4       -1.733096e+00
        93         4        5.255642e-01
        94         4       -1.621328e+00
        95         4       -5.578853e-01
        96         4        9.294375e-01
        97         4        9.358362e-01
        98         4        1.819599e+00
        99         4       -9.791939e-01
       100         4       -4.524453e-01
         1         5        7.262176e-01
         2         5        5.219517e-02
         3         5        3.516354e-01
         4         5       -4.153824e-02
         5         5        3.321247e-01
         6         5        8.895184e-01
         7         5        1.782247e+00
         8         5       -1.638409e-01
         9         5        1.710898e+00
        10         5        2.885478e-01
        11         5       -6.482470e-01
        12         5        9.022125e-01
        13         5        7.203942e-01
        14         5       -3.712790e-01
        15         5       -4.525369e-01
        16         5        6.118090e-02
        17         5       -9.207093e-01
        18         5        2.681740e-01
        19         5       -1.348783e+00
        20         5        9.153325e-01
        21         5        1.024632e+00
        22         5       -7.022773e-01
        23         5        4.788450e-01
        24         5        1.119215e+00
        25         5        3.662886e-01
        26         5       -3.960430e-01
        27         5       -4.030053e-01
        28         5        1.570966e+00
        29         5        7.993308e-01
        30         5       -4.386402e-01
        31         5        8.842368e-01
        32         5       -1.324459e+00
        33         5       -1.865597e-01
        34         5       -1.789683e+00
        35         5       -9.879253e-01
        36         5       -1.341536e+00
        37         5        1.018375e+00
        38         5        2.486225e-01
        39         5       -6.770040e-01
        40         5       -3.693930e-01
        41         5        1.045298e+00
        42         5        1.780091e-01
        43         5        9.424144e-01
        44         5       -1.061412e-01
        45         5        4.825549e-01
        46         5       -1.478710e+00
        47         5        7.615440e-01
        48         5       -1.266777e+00
        49         5       -9.245060e-01
        50         5       -4.496341e-01
        51         5        7.808521e-01
        52         5       -1.121872e+00
        53         5       -9.626040e-01
        54         5        8.259651e-01
        55         5       -5.146972e-01
        56         5       -5.458800e-01
        57         5        1.584685e+00
        58         5       -1.569480e+00
        59         5       -1.672475e-01
        60         5        7.583859e-01
        61         5        1.113841e+00
        62         5        7.913183e-01
        63         5        1.181048e+00
        64         5        5.518552e-01
        65         5       -5.938413e-01
        66         5       -9.007269e-01
        67         5        1.505500e-01
        68         5        1.652093e+00
        69         5        3.711713e-01
        70         5       -3.323671e-01
        71         5       -9.597272e-01
        72         5        1.159910e+00
        73         5        7.869378e-01
        74         5       -1.406031e+00
        75         5       -5.260326e-02
        76         5        3.172738e-01
        77         5       -1.374088e+00
        78         5       -5.601302e-01
        79         5        4.027793e-01
        80         5        1.480636e+00
        81         5       -6.776437e-01
        82         5        4.555629e-01
        83         5        3.730775e-01
        84         5       -2.151745e-01
        85         5        6.380435e-01
        86         5        5.964283e-01
        87         5        6.162834e-01
        88         5        9.226351e-01
        89         5        1.270466e+00
        90         5        2.972968e+00
        91         5       -3.289620e-02
        92         5       -4.725739e-01
        93         5        4.977429e-01
        94         5       -1.368895e+00
        95         5       -8.561686e-01
        96         5        3.655275e-01
        97         5        9.774142e-02
        98         5        1.219641e+00
        99         5        1.764359e+00
       100         5        1.481961e+00
;
param X_Original:=
    1        4.441243e-01
    2       -7.291114e-01
    3        9.394924e-02
    4       -9.406374e-01
    5        1.257004e+00
    6       -6.117276e-01
    7        4.899546e-01
    8        3.404004e-01
    9       -1.248572e+00
   10       -2.082385e+00
   11       -1.004225e+00
   12        1.742728e-01
   13        5.079558e-01
   14       -6.624915e-01
   15       -6.875097e-01
   16       -9.255830e-01
   17        2.592641e+00
   18       -3.008868e+00
   19        1.138307e+00
   20       -1.168296e-01
   21       -2.877524e+00
   22        2.254015e-02
   23       -6.194883e-01
   24        1.159588e+00
   25       -1.380575e+00
   26       -2.402366e+00
   27       -1.822328e+00
   28       -1.302745e+00
   29       -1.010098e+00
   30        2.260509e-01
   31       -1.055658e+00
   32        2.439338e+00
   33       -2.905835e-01
   34       -3.263144e-01
   35       -6.901280e-01
   36        5.753170e+00
   37        1.535591e+00
   38       -2.224805e-01
   39       -8.096554e-01
   40        6.830293e-01
   41        1.437761e+00
   42        5.479414e-01
   43       -2.999899e-01
   44       -6.590205e-01
   45       -8.367432e-01
   46        1.634042e-02
   47        2.300529e-01
   48        5.471584e-01
   49       -5.778013e-01
   50        2.336349e+00
   51       -2.540099e+00
   52       -3.282402e-01
   53       -1.061776e-01
   54       -7.934345e-02
   55        6.965308e-01
   56        5.235262e+00
   57       -1.283911e+00
   58       -1.368271e+00
   59       -2.228413e-01
   60       -2.083645e+00
   61        6.985268e-02
   62       -9.971909e-01
   63       -2.011265e-01
   64       -1.962111e+00
   65       -3.735395e-01
   66        2.050324e+00
   67       -9.738577e-02
   68        6.841288e-01
   69       -2.614351e-01
   70        1.817943e+00
   71       -9.460627e-02
   72        9.813668e-01
   73       -1.144107e+00
   74       -2.996978e+00
   75        7.499968e-01
   76       -9.392421e-01
   77        7.620770e-01
   78        1.618466e+00
   79       -1.349171e+00
   80       -2.498816e+00
   81        1.327258e-01
   82        1.345960e-01
   83        1.940829e-01
   84        9.455018e-01
   85        4.121595e-03
   86        8.119043e-01
   87       -3.702254e-01
   88        3.938744e-01
   89       -4.460014e-01
   90       -2.438224e-01
   91        1.090315e+00
   92        2.087222e-01
   93       -7.774315e-01
   94        8.038049e-01
   95        8.768384e-03
   96        1.268875e+00
   97        4.936627e-01
   98       -7.389044e-01
   99       -1.820156e-01
  100       -2.754438e-01
;
param outliervec_original :=
    1    1
    2    1
    3    1
    4    1
    5    1
    6    1
    7    1
    8    1
    9    1
   10    1
   11    1
   12    1
   13    1
   14    1
   15    1
   16    1
   17    1
   18    0
   19    1
   20    1
   21    0
   22    1
   23    0
   24    1
   25    1
   26    0
   27    1
   28    1
   29    1
   30    1
   31    1
   32    1
   33    1
   34    1
   35    1
   36    0
   37    1
   38    1
   39    1
   40    1
   41    1
   42    1
   43    1
   44    1
   45    1
   46    1
   47    0
   48    1
   49    1
   50    0
   51    0
   52    1
   53    0
   54    1
   55    1
   56    0
   57    1
   58    1
   59    1
   60    1
   61    1
   62    1
   63    1
   64    1
   65    1
   66    1
   67    1
   68    1
   69    1
   70    1
   71    1
   72    1
   73    0
   74    1
   75    1
   76    1
   77    1
   78    1
   79    1
   80    1
   81    1
   82    1
   83    1
   84    1
   85    1
   86    1
   87    1
   88    1
   89    1
   90    1
   91    1
   92    0
   93    1
   94    1
   95    1
   96    1
   97    1
   98    1
   99    1
  100    1
;
param d:= 56;
param r:=5;
param p:=0.880000;
param M:=1000;
param U:=
         1         1        1.740772e+00
         2         1        3.826615e-01
         3         1        7.669932e-01
         4         1        6.414311e-01
         5         1        1.209102e+00
         6         1       -5.954402e-01
         7         1        2.560135e+00
         8         1       -9.078426e-01
         9         1        5.345051e-01
        10         1        2.140887e-02
        11         1       -5.738530e-01
        12         1       -1.774796e+00
        13         1        6.377687e-01
        14         1        1.060887e+00
        15         1        5.621112e-01
        16         1       -4.272827e-01
        17         1        7.208073e-01
        18         1        2.573184e-01
        19         1       -8.606457e-01
        20         1       -6.949265e-01
        21         1        1.060890e+00
        22         1       -2.011209e+00
        23         1        1.611310e+00
        24         1       -4.554217e-01
        25         1       -1.237901e+00
        26         1        1.956870e-01
        27         1        5.497270e-01
        28         1       -6.473012e-01
        29         1        3.885275e-01
        30         1        6.545435e-01
        31         1        1.091142e+00
        32         1       -1.314309e-02
        33         1        9.634512e-01
        34         1        2.359572e+00
        35         1        6.071229e-01
        36         1       -7.357678e-01
        37         1       -1.062744e+00
        38         1       -1.556231e+00
        39         1        1.109814e-01
        40         1        1.431272e+00
        41         1       -2.152792e-01
        42         1        8.077471e-01
        43         1       -1.057616e-01
        44         1        7.106416e-01
        45         1       -3.787364e-01
        46         1        9.314590e-02
        47         1       -7.952098e-02
        48         1       -6.434992e-01
        49         1       -7.485347e-01
        50         1       -9.465448e-02
        51         1       -2.432915e-01
        52         1        4.572675e-01
        53         1       -2.455163e+00
        54         1        3.206066e-01
        55         1        5.840671e-01
        56         1        1.202224e+00
         1         2        8.221527e-01
         2         2       -2.284084e-01
         3         2       -1.512244e+00
         4         2       -2.203179e-01
         5         2       -3.060873e-03
         6         2        8.560882e-01
         7         2        2.768442e-02
         8         2       -5.097560e-01
         9         2        1.902011e+00
        10         2       -3.924573e-01
        11         2        8.769636e-01
        12         2        2.746197e-01
        13         2       -1.892613e+00
        14         2        7.861360e-01
        15         2       -5.647627e-01
        16         2        5.520519e-01
        17         2       -1.048289e-01
        18         2       -9.380967e-01
        19         2       -2.253637e-02
        20         2       -1.007318e+00
        21         2       -1.294279e+00
        22         2       -2.351344e+00
        23         2        1.503777e-01
        24         2        1.238316e+00
        25         2        7.507835e-01
        26         2       -7.420792e-01
        27         2       -1.253265e-01
        28         2        2.377485e-01
        29         2       -2.713148e-01
        30         2       -1.336513e+00
        31         2        8.184914e-01
        32         2        3.558070e-01
        33         2       -1.340404e+00
        34         2       -9.832085e-01
        35         2        4.234154e-01
        36         2        1.630556e+00
        37         2       -2.252395e+00
        38         2        5.924731e-01
        39         2       -1.667203e-01
        40         2       -1.449727e-01
        41         2       -3.460178e-01
        42         2        9.635455e-01
        43         2       -5.746609e-01
        44         2       -1.464681e+00
        45         2        7.056689e-01
        46         2       -3.678269e-01
        47         2       -8.165604e-01
        48         2       -4.124846e-01
        49         2        6.089479e-01
        50         2        4.044977e-01
        51         2       -1.582069e-02
        52         2       -5.190357e-01
        53         2       -7.219378e-01
        54         2       -1.781040e-01
        55         2       -1.067110e-01
        56         2        4.867615e-01
         1         3       -1.370617e+00
         2         3        8.473457e-01
         3         3       -7.990990e-01
         4         3        4.046990e-01
         5         3        1.298543e+00
         6         3        9.030400e-01
         7         3       -7.098223e-01
         8         3        3.677685e-01
         9         3        5.179540e-01
        10         3        1.444461e+00
        11         3       -3.223686e-01
        12         3       -1.762565e+00
        13         3        1.884491e+00
        14         3        2.299664e+00
        15         3        1.672178e+00
        16         3       -6.519315e-01
        17         3       -9.630622e-01
        18         3       -2.612522e-01
        19         3        1.315976e-01
        20         3        2.630146e-01
        21         3        1.621289e+00
        22         3        2.413087e-01
        23         3       -1.222351e-01
        24         3       -9.540789e-01
        25         3       -7.483781e-02
        26         3       -1.465661e+00
        27         3       -1.550612e-01
        28         3       -6.447356e-02
        29         3       -1.513150e+00
        30         3        9.251330e-01
        31         3       -5.621695e-01
        32         3       -7.576651e-01
        33         3        1.309205e+00
        34         3       -1.183246e+00
        35         3        9.980017e-01
        36         3       -1.074256e+00
        37         3       -8.449538e-01
        38         3       -6.258297e-01
        39         3       -1.916431e-01
        40         3       -2.275852e-01
        41         3       -1.584483e-01
        42         3       -9.691382e-01
        43         3        1.002603e+00
        44         3        9.247145e-01
        45         3       -5.369481e-01
        46         3        1.517272e+00
        47         3        2.980257e-01
        48         3       -7.644866e-01
        49         3        6.906435e-01
        50         3       -3.883070e-01
        51         3       -2.897573e-02
        52         3       -2.898239e-01
        53         3        2.445411e-01
        54         3       -2.602529e-01
        55         3       -6.876991e-01
        56         3       -7.001510e-01
         1         4        1.203620e-01
         2         4       -4.880955e-01
         3         4        8.872633e-01
         4         4       -9.523123e-01
         5         4        5.570604e-01
         6         4       -1.378394e+00
         7         4       -8.008621e-01
         8         4        1.064214e+00
         9         4       -9.126171e-01
        10         4       -1.213010e+00
        11         4        1.293940e+00
        12         4        6.617979e-01
        13         4        2.158047e+00
        14         4       -9.667957e-01
        15         4        1.988402e-01
        16         4       -1.781202e+00
        17         4       -6.353306e-01
        18         4       -2.896863e-01
        19         4        4.162006e-01
        20         4       -7.990461e-01
        21         4       -1.300121e+00
        22         4        3.806163e-01
        23         4       -6.454746e-01
        24         4       -6.290907e-01
        25         4        1.844235e+00
        26         4       -2.415919e-01
        27         4        8.039185e-01
        28         4       -8.974228e-01
        29         4       -1.709985e-01
        30         4        2.234240e-03
        31         4       -7.274134e-01
        32         4       -1.956021e+00
        33         4        1.197831e+00
        34         4        3.999654e-01
        35         4        1.067374e+00
        36         4       -2.761366e+00
        37         4       -6.185895e-01
        38         4        1.298082e-01
        39         4        1.190240e-01
        40         4        1.040273e-01
        41         4        1.393744e-01
        42         4       -5.003642e-02
        43         4       -3.782648e-01
        44         4        6.937086e-02
        45         4       -1.465836e+00
        46         4        7.570321e-02
        47         4        1.425360e+00
        48         4       -7.810593e-01
        49         4       -7.505051e-01
        50         4        3.389457e-02
        51         4       -2.711676e+00
        52         4        9.611571e-01
        53         4       -9.780193e-03
        54         4       -3.874160e-01
        55         4       -1.621328e+00
        56         4       -5.578853e-01
         1         5        5.219517e-02
         2         5       -4.153824e-02
         3         5        8.895184e-01
         4         5       -1.638409e-01
         5         5        2.885478e-01
         6         5       -4.525369e-01
         7         5        6.118090e-02
         8         5       -9.207093e-01
         9         5        2.681740e-01
        10         5        1.024632e+00
        11         5       -7.022773e-01
        12         5        1.119215e+00
        13         5        3.662886e-01
        14         5       -3.960430e-01
        15         5       -4.030053e-01
        16         5        1.570966e+00
        17         5        7.993308e-01
        18         5       -4.386402e-01
        19         5        8.842368e-01
        20         5       -1.324459e+00
        21         5       -9.879253e-01
        22         5       -1.341536e+00
        23         5       -6.770040e-01
        24         5       -3.693930e-01
        25         5        1.780091e-01
        26         5        9.424144e-01
        27         5       -1.061412e-01
        28         5        4.825549e-01
        29         5        7.615440e-01
        30         5       -1.266777e+00
        31         5       -9.245060e-01
        32         5       -4.496341e-01
        33         5        7.808521e-01
        34         5       -1.121872e+00
        35         5       -9.626040e-01
        36         5       -5.146972e-01
        37         5       -5.458800e-01
        38         5        1.584685e+00
        39         5       -1.672475e-01
        40         5        7.913183e-01
        41         5        1.181048e+00
        42         5       -5.938413e-01
        43         5       -9.007269e-01
        44         5       -9.597272e-01
        45         5        7.869378e-01
        46         5        3.172738e-01
        47         5       -1.374088e+00
        48         5       -5.601302e-01
        49         5        3.730775e-01
        50         5        6.162834e-01
        51         5        9.226351e-01
        52         5        1.270466e+00
        53         5        2.972968e+00
        54         5       -3.289620e-02
        55         5       -1.368895e+00
        56         5       -8.561686e-01
;

param theta:=
    1       -3.112707e-01
    2       -1.102297e+00
    3       -1.098504e+00
    4       -4.576685e-01
    5       -2.217260e+00
;
param X_true:=
    1       -1.132965e-01
    2       -4.826626e-01
    3       -7.235279e-02
    4        3.977549e-01
    5       -2.694173e+00
    6       -1.160737e-01
    7        1.832060e-01
    8        1.994887e+00
    9       -3.008868e+00
   10       -2.877524e+00
   11        5.310080e-01
   12       -5.985626e-01
   13       -1.982244e+00
   14       -2.402366e+00
   15       -5.867610e-01
   16       -2.427415e+00
   17       -5.324397e-01
   18        2.346112e+00
   19       -2.002889e+00
   20        4.340118e+00
   21        2.100976e+00
   22        5.753170e+00
   23        1.263468e+00
   24        9.317815e-01
   25       -1.598795e+00
   26        3.881052e-01
   27        4.782920e-03
   28       -6.489867e-01
   29        2.300529e-01
   30        3.060984e+00
   31        1.758468e+00
   32        2.336349e+00
   33       -2.540099e+00
   34        3.953552e+00
   35       -1.061776e-01
   36        2.016748e+00
   37        5.235262e+00
   38       -3.054263e+00
   39        6.761082e-01
   40       -1.837875e+00
   41       -2.059996e+00
   42        1.090661e+00
   43        1.735270e+00
   44        2.473725e+00
   45       -1.144107e+00
   46       -2.028393e+00
   47        2.991831e+00
   48        3.094195e+00
   49       -1.680646e+00
   50       -1.371830e+00
   51       -6.796747e-01
   52       -2.508673e+00
   53       -5.295986e+00
   54        6.326643e-01
   55        4.468492e+00
   56        2.012020e+00
;
param X:=
    1       -7.291114e-01
    2       -9.406374e-01
    3       -6.117276e-01
    4        3.404004e-01
    5       -2.082385e+00
    6       -6.875097e-01
    7       -9.255830e-01
    8        2.592641e+00
    9       -3.008868e+00
   10       -2.877524e+00
   11        2.254015e-02
   12        1.159588e+00
   13       -1.380575e+00
   14       -2.402366e+00
   15       -1.822328e+00
   16       -1.302745e+00
   17       -1.010098e+00
   18        2.260509e-01
   19       -1.055658e+00
   20        2.439338e+00
   21       -6.901280e-01
   22        5.753170e+00
   23       -8.096554e-01
   24        6.830293e-01
   25        5.479414e-01
   26       -2.999899e-01
   27       -6.590205e-01
   28       -8.367432e-01
   29        2.300529e-01
   30        5.471584e-01
   31       -5.778013e-01
   32        2.336349e+00
   33       -2.540099e+00
   34       -3.282402e-01
   35       -1.061776e-01
   36        6.965308e-01
   37        5.235262e+00
   38       -1.283911e+00
   39       -2.228413e-01
   40       -9.971909e-01
   41       -2.011265e-01
   42       -3.735395e-01
   43        2.050324e+00
   44       -9.460627e-02
   45       -1.144107e+00
   46       -9.392421e-01
   47        7.620770e-01
   48        1.618466e+00
   49        1.940829e-01
   50       -3.702254e-01
   51        3.938744e-01
   52       -4.460014e-01
   53       -2.438224e-01
   54        1.090315e+00
   55        8.038049e-01
   56        8.768384e-03
;
param outliervec:=
    1    1
    2    1
    3    1
    4    1
    5    1
    6    1
    7    1
    8    1
    9    0
   10    0
   11    1
   12    1
   13    1
   14    0
   15    1
   16    1
   17    1
   18    1
   19    1
   20    1
   21    1
   22    0
   23    1
   24    1
   25    1
   26    1
   27    1
   28    1
   29    0
   30    1
   31    1
   32    0
   33    0
   34    1
   35    0
   36    1
   37    0
   38    1
   39    1
   40    1
   41    1
   42    1
   43    1
   44    1
   45    0
   46    1
   47    1
   48    1
   49    1
   50    1
   51    1
   52    1
   53    1
   54    1
   55    1
   56    1
; 
param greedy_time :=         2.218692e-01
;